nApps = 196
nRes = 9
nActs = 420
nNetworks = 6

assignmentToResources = [2,1,3,2,2,1,2,2,2,2,2,3,1,1,1,3,1,1,3,2,1,2,2,2,3,3,2,3,3,1,1,2,1,2,1,3,3,2,1,3,2,3,3,2,1,1,3,2,2,1,1,1,3,1,2,1,2,3,2,1,1,1,1,1,1,2,3,1,1,1,1,1,3,1,3,1,1,1,1,1,3,1,1,2,1,1,1,2,1,1,1,2,1,3,2,1,2,3,1,3,5,5,5,4,6,6,6,5,5,5,5,5,5,4,4,5,5,5,5,5,5,5,5,5,5,6,6,6,6,6,6,4,4,4,4,4,4,6,5,5,4,4,5,5,5,5,5,5,6,6,6,6,6,6,6,6,4,4,5,5,5,5,4,5,5,6,6,6,6,6,5,6,5,5,5,6,6,6,6,5,4,4,4,4,6,6,6,6,5,6,6,6,4,4,5,5,5,5,5,6,4,4,4,4,4,6,6,6,4,4,4,6,4,4,4,4,4,4,6,4,4,5,4,5,5,4,6,6,6,6,4,8,5,9,5,9,6,7,6,7,5,9,4,8,6,7,4,8,4,8,5,9,4,8,6,7,5,9,5,7,4,9,6,8,4,9,4,9,6,7,4,9,4,9,5,7,6,8,6,7,5,9,4,8,6,8,6,8,4,9,7,7,9,8,8,7,7,7,7,9,9,7,7,8,8,7,7,9,7,9,9,7,7,7,7,8,7,7,7,7,8,9,9,8,9,9,9,7,7,9,8,9,7,7,9,9,7,7,8,7,8,7,7,7,7,8,8,8,7,7,7,7,9,7,7,7,7,7,7,7,7,7,7,9,9,7,7,7,7,7,8,9,8,8,8,7,7,8,7,8,8,8,9,8,7,7,9,7,7,7,9,9,8,8,8,7,7,7,9,9,9,7,9,9,8,8,8,8,7,8,8,7,8,7,7,8,7,7,7,8];

processingTimes = [80,104,128,136,120,104,112,56,136,96,128,88,64,128,72,112,56,160,128,120,136,160,128,72,88,120,152,136,128,120,80,104,160,128,104,112,136,152,80,144,72,128,112,120,104,128,120,56,104,144,136,160,152,128,112,120,112,112,152,96,144,104,104,112,48,56,120,136,72,96,112,48,56,152,48,160,136,128,136,168,160,128,136,112,104,144,128,152,112,104,144,120,88,128,152,96,64,64,104,160,8,8,3,4,3,4,4,23,4,4,3,3,8,1000,4,4,4,4,4,4,4,4,3,500,3,3,3,500,13,4,4,4,4,1000,4,200,200,3,4,4,1000,13,3,4,10,3,100,4,500,4,4,500,4,4,4,4,1000,3,3,500,4,500,3,3,3,4,5,4,500,8,500,500,23,4,4,13,4,3,4,4,4,4,5,3,500,500,4,4,500,500,3,4,3,3,4,5,4,4,500,3,3,4,4,4,4,3,500,500,3,500,3,4,500,3,1000,3,4,3,4,5,4,5,3,4,500,5,3,3,4,4,3,3,8,8,4,4,4,4,3,3,4,4,5,5,4,4,5,5,3,3,3,3,3,3,3,3,4,4,10,10,3,3,3,3,5,5,3,3,3,3,13,13,3,3,3,3,3,3,3,3,3,3,6,6,4,4,4,4,13,13,8,8,3,4,3,4,4,23,4,4,3,3,8,1000,4,4,4,4,4,4,4,4,3,500,3,3,3,500,13,4,4,4,4,1000,4,200,200,3,4,4,1000,13,3,4,10,3,100,4,500,4,4,500,4,4,4,4,1000,3,3,500,4,500,3,3,3,4,5,4,500,8,500,500,23,4,4,13,4,3,4,4,4,4,5,3,500,500,4,4,500,500,3,4,3,3,4,5,4,4,500,3,3,4,4,4,4,3,500,500,3,500,3,4,500,3,1000,3,4,3,4,5,4,5,3,4,500,5,3,3,4,4];

periods = [20000,20000,10000,100000,20000,10000,100000,20000,10000,20000,5000,10000,100000,20000,100000,20000,50000,2000,10000,100000,100000,100000,20000,1000,20000,10000,10000,10000,2000,10000,10000,20000,20000,100000,10000,100000,10000,5000,20000,20000,10000,100000,1000,20000,100000,20000,20000,20000,10000,50000,50000,20000,20000,20000,50000,10000,100000,20000,2000,10000,10000,100000,10000,50000,50000,20000,10000,100000,20000,50000,50000,100000,100000,100000,10000,10000,100000,5000,100000,100000,20000,50000,20000,20000,100000,100000,20000,10000,10000,10000,10000,100000,100000,5000,2000,20000,10000,10000,1000,10000,20000,20000,20000,20000,10000,10000,10000,100000,100000,100000,20000,20000,20000,10000,10000,100000,100000,10000,10000,20000,20000,20000,5000,5000,5000,10000,10000,10000,10000,10000,10000,100000,100000,100000,100000,2000,2000,10000,100000,100000,100000,100000,100000,20000,1000,1000,1000,1000,20000,10000,10000,10000,10000,10000,10000,2000,10000,10000,20000,20000,20000,20000,20000,100000,100000,100000,100000,10000,10000,10000,5000,20000,10000,10000,10000,100000,100000,100000,1000,20000,100000,100000,20000,20000,20000,20000,20000,20000,10000,20000,20000,20000,20000,20000,100000,100000,100000,100000,100000,20000,10000,10000,10000,50000,50000,10000,10000,10000,20000,50000,100000,100000,100000,10000,10000,100000,5000,5000,20000,20000,20000,20000,100000,100000,100000,100000,5000,5000,10000,10000,20000,20000,20000,20000,20000,20000,20000,20000,20000,20000,20000,20000,20000,20000,20000,20000,20000,20000,20000,20000,20000,20000,20000,20000,20000,20000,20000,20000,5000,5000,5000,5000,5000,5000,100000,100000,20000,20000,20000,20000,10000,10000,10000,10000,10000,10000,10000,10000,10000,10000,10000,10000,10000,10000,10000,10000,10000,10000,10000,10000,20000,20000,20000,20000,10000,10000,10000,100000,100000,100000,20000,20000,20000,10000,10000,100000,100000,10000,10000,20000,20000,20000,5000,5000,5000,10000,10000,10000,10000,10000,10000,100000,100000,100000,100000,2000,2000,10000,100000,100000,100000,100000,100000,20000,1000,1000,1000,1000,20000,10000,10000,10000,10000,10000,10000,2000,10000,10000,20000,20000,20000,20000,20000,100000,100000,100000,100000,10000,10000,10000,5000,20000,10000,10000,10000,100000,100000,100000,1000,20000,100000,100000,20000,20000,20000,20000,20000,20000,10000,20000,20000,20000,20000,20000,100000,100000,100000,100000,100000,20000,10000,10000,10000,50000,50000,10000,10000,10000,20000,50000,100000,100000,100000,10000,10000,100000,5000,5000,20000,20000,20000,20000,100000,100000,100000,100000,5000,5000,10000,10000];

assignmentToClusters = [1,2,3,4,5,6,7,2,8,9,10,11,12,2,13,2,14,15,16,17,18,19,2,20,21,22,22,23,24,23,22,2,2,25,26,27,23,10,21,2,28,29,30,31,32,33,9,2,34,35,36,37,2,21,38,23,39,21,40,41,22,42,43,44,45,2,22,46,47,48,49,50,18,51,22,52,53,10,54,55,2,56,2,2,57,58,2,23,59,60,22,61,18,10,62,63,23,64,65,66,67,68,69,70,71,72,73,74,75,76,77,78,79,80,81,82,83,84,85,86,87,88,89,90,91,92,93,94,95,96,97,98,99,100,101,102,103,104,105,106,107,108,109,110,111,112,113,114,115,116,117,118,119,120,121,122,123,124,125,126,127,128,129,130,131,132,133,134,135,136,137,138,139,140,141,142,143,144,145,146,147,148,149,150,151,152,153,154,155,156,157,158,159,160,161,162,163,164,165,166,167,168,169,170,171,172,173,174,175,176,177,178,179,180,181,182,183,184,185,186,187,188,189,190,191,192,193,194,195,196,2,2,2,2,2,2,2,2,2,2,2,2,2,2,2,2,2,2,2,2,2,2,2,2,2,2,9,9,10,10,10,10,10,10,18,18,21,21,21,21,22,22,22,22,22,22,22,22,22,22,23,23,23,23,23,23,23,23,23,23,67,68,69,70,71,72,73,74,75,76,77,78,79,80,81,82,83,84,85,86,87,88,89,90,91,92,93,94,95,96,97,98,99,100,101,102,103,104,105,106,107,108,109,110,111,112,113,114,115,116,117,118,119,120,121,122,123,124,125,126,127,128,129,130,131,132,133,134,135,136,137,138,139,140,141,142,143,144,145,146,147,148,149,150,151,152,153,154,155,156,157,158,159,160,161,162,163,164,165,166,167,168,169,170,171,172,173,174,175,176,177,178,179,180,181,182,183,184,185,186,187,188,189,190,191,192,193,194,195,196];

precedenceAdjList = [[],[],[],[],[],[],[],[22],[],[],[],[],[],[],[],[233,235],[],[],[],[],[],[],[247,249],[],[267],[271],[277],[281],[],[],[275],[243],[255],[],[],[],[289],[263],[269],[241],[],[],[],[],[],[],[257],[231],[],[],[],[],[251],[],[],[],[],[24],[],[],[279],[],[],[],[],[253],[],[],[],[],[],[],[265],[],[25,273],[],[],[259],[],[],[],[],[245],[],[],[],[237,239],[285,287],[],[],[],[],[20],[261],[],[],[283],[],[],[],[],[],[],[],[],[],[],[],[],[],[],[],[],[],[],[],[],[],[],[],[],[],[],[],[],[],[],[],[],[],[],[],[],[],[],[],[],[],[],[],[],[],[],[],[],[],[],[],[],[],[],[],[],[],[],[],[],[],[],[],[],[],[],[],[],[],[],[],[],[],[],[],[],[],[],[],[],[],[],[],[],[],[],[],[],[],[],[],[],[],[],[],[],[],[],[],[],[],[],[],[],[],[],[],[],[],[],[],[],[],[],[],[],[],[],[],[],[],[],[],[],[],[],[],[],[],[],[],[],[],[1],[230],[83],[232],[47],[234],[39],[236],[15],[238],[31],[240],[82],[242],[80],[244],[86],[246],[13],[248],[22],[250],[86],[252],[15],[254],[9],[256],[10],[258],[77],[260],[93],[262],[92],[264],[53],[266],[57],[268],[90],[270],[30],[272],[26],[274],[66],[276],[25],[278],[96],[280],[29],[282],[36],[284],[27],[286],[55],[288],[100],[101],[102],[103],[104],[105],[106],[107],[108],[109],[110],[111],[112],[113],[114],[115],[116],[117],[118],[119],[120],[121],[122],[123],[124],[125],[126],[127],[128],[129],[130],[131],[132],[133],[134],[135],[136],[137],[138],[139],[140],[141],[142],[143],[144],[145],[146],[147],[148],[149],[150],[151],[152],[153],[154],[155],[156],[157],[158],[159],[160],[161],[162],[163],[164],[165],[166],[167],[168],[169],[170],[171],[172],[173],[174],[175],[176],[177],[178],[179],[180],[181],[182],[183],[184],[185],[186],[187],[188],[189],[190],[191],[192],[193],[194],[195],[196],[197],[198],[199],[200],[201],[202],[203],[204],[205],[206],[207],[208],[209],[210],[211],[212],[213],[214],[215],[216],[217],[218],[219],[220],[221],[222],[223],[224],[225],[226],[227],[228],[229]];